NAME: random-99-26969
TYPE: TSP
COMMENT: size=99 seed=26969
DIMENSION: 200
EDGE_WEIGHT_TYPE: EUC_2D
NODE_COORD_SECTION
+0 983 372
-0 983 372
+1 74 33
-1 740 506
+2 994 92
-2 86 709
+3 478 694
-3 76 12
+4 163 472
-4 980 134
+5 34 674
-5 73 609
+6 100 207
-6 371 537
+7 11 845
-7 143 309
+8 662 563
-8 293 133
+9 184 228
-9 682 305
+10 709 962
-10 434 485
+11 175 785
-11 934 406
+12 948 390
-12 832 956
+13 488 525
-13 509 780
+14 516 348
-14 130 456
+15 759 272
-15 800 115
+16 793 223
-16 194 790
+17 612 841
-17 321 316
+18 931 929
-18 143 91
+19 128 934
-19 386 424
+20 160 226
-20 232 267
+21 468 189
-21 560 215
+22 781 701
-22 189 320
+23 843 884
-23 861 149
+24 693 535
-24 261 842
+25 439 700
-25 984 909
+26 938 750
-26 433 216
+27 675 355
-27 166 379
+28 373 341
-28 718 686
+29 322 792
-29 67 729
+30 849 698
-30 826 821
+31 327 471
-31 279 480
+32 748 917
-32 911 190
+33 520 963
-33 188 517
+34 836 162
-34 954 881
+35 352 637
-35 416 468
+36 758 982
-36 32 553
+37 662 236
-37 310 369
+38 549 722
-38 903 497
+39 242 179
-39 637 368
+40 639 658
-40 944 923
+41 667 987
-41 386 826
+42 510 391
-42 908 191
+43 952 144
-43 184 466
+44 822 50
-44 47 130
+45 443 167
-45 616 769
+46 965 230
-46 55 301
+47 672 228
-47 813 677
+48 991 579
-48 177 944
+49 619 251
-49 295 361
+50 529 616
-50 208 591
+51 369 841
-51 308 146
+52 778 938
-52 66 963
+53 476 530
-53 857 359
+54 634 375
-54 468 67
+55 550 866
-55 890 518
+56 943 49
-56 24 821
+57 257 829
-57 871 346
+58 243 305
-58 780 287
+59 19 419
-59 459 448
+60 789 769
-60 119 476
+61 138 950
-61 629 778
+62 340 305
-62 484 341
+63 120 188
-63 90 226
+64 25 301
-64 394 187
+65 665 172
-65 518 432
+66 413 321
-66 77 867
+67 811 663
-67 507 287
+68 889 844
-68 967 473
+69 615 596
-69 679 327
+70 287 893
-70 895 441
+71 469 960
-71 852 146
+72 706 141
-72 188 310
+73 836 82
-73 690 756
+74 738 319
-74 355 746
+75 285 74
-75 238 600
+76 866 185
-76 596 906
+77 673 113
-77 640 594
+78 847 665
-78 652 928
+79 454 39
-79 846 213
+80 607 154
-80 814 945
+81 777 40
-81 517 473
+82 155 279
-82 681 289
+83 260 579
-83 304 827
+84 922 70
-84 398 987
+85 421 31
-85 975 171
+86 297 709
-86 672 609
+87 131 634
-87 435 574
+88 78 389
-88 238 457
+89 996 881
-89 378 482
+90 686 97
-90 8 87
+91 995 832
-91 913 847
+92 617 240
-92 438 530
+93 520 100
-93 857 716
+94 831 745
-94 27 924
+95 57 940
-95 107 970
+96 998 81
-96 24 422
+97 594 313
-97 425 363
+98 364 407
-98 713 692
+99 926 614
-99 238 666
PRECEDENCE_SECTION
+0 -0
+1 -1
+2 -2
+3 -3
+4 -4
+5 -5
+6 -6
+7 -7
+8 -8
+9 -9
+10 -10
+11 -11
+12 -12
+13 -13
+14 -14
+15 -15
+16 -16
+17 -17
+18 -18
+19 -19
+20 -20
+21 -21
+22 -22
+23 -23
+24 -24
+25 -25
+26 -26
+27 -27
+28 -28
+29 -29
+30 -30
+31 -31
+32 -32
+33 -33
+34 -34
+35 -35
+36 -36
+37 -37
+38 -38
+39 -39
+40 -40
+41 -41
+42 -42
+43 -43
+44 -44
+45 -45
+46 -46
+47 -47
+48 -48
+49 -49
+50 -50
+51 -51
+52 -52
+53 -53
+54 -54
+55 -55
+56 -56
+57 -57
+58 -58
+59 -59
+60 -60
+61 -61
+62 -62
+63 -63
+64 -64
+65 -65
+66 -66
+67 -67
+68 -68
+69 -69
+70 -70
+71 -71
+72 -72
+73 -73
+74 -74
+75 -75
+76 -76
+77 -77
+78 -78
+79 -79
+80 -80
+81 -81
+82 -82
+83 -83
+84 -84
+85 -85
+86 -86
+87 -87
+88 -88
+89 -89
+90 -90
+91 -91
+92 -92
+93 -93
+94 -94
+95 -95
+96 -96
+97 -97
+98 -98
+99 -99
EOF
